(declare-const a Real)
(declare-const b Real)
(declare-const c Real)
(declare-const d Real)
(assert (= (* a b c d) 1))
(assert (>= a 0))
(assert (>= b 0))
(assert (>= c 0))
(assert (>= d 0))
(assert (not (<= (+ (/ 1 2) b c d (* (/ 1 2) (pow a 2)) (* (pow (* (pow a (* b (pow a 3))) (pow b (* c (pow b 3))) (pow c (* 4 d))) (pow (+ d (* b (pow a 3)) (* c (pow b 3))) -1)) (+ (* -1 d) (* -1 b (pow a 3)) (* -1 c (pow b 3)))) (* -1 a (pow d 4))) 0)))
(check-sat)
(get-model)
(exit)